
--- Job bchfcnet.gms Start 02/09/22 13:37:52 34.3.0 rac355f3 WEX-WEI x86 64bit/MS Windows
--- Applying:
    C:\GAMS\34\gmsprmNT.txt
--- GAMS Parameters defined
    Input C:\Users\dekhi\Desktop\gamsworld\FCNetLib\test\bchfcnet.gms
    PageSize 0
    ScrDir C:\Users\dekhi\Desktop\gamsworld\FCNetLib\test\225a\
    SysDir C:\GAMS\34\
    LogOption 3
    ErrMsg 1
    ErrorLog 99
    IDE 1
    ResLim 3600
    LstTitleLeftAligned 1
Licensee: Eval License                                   S211214|0002AW-GEN
          Ostfalia Hochschule fuer angewandte Wissenschaften        DCE1645
          C:\Users\dekhi\Documents\GAMS\gamslice.txt
          License Admin: Mohamed Ali Dekhil, dekhil.medali@gmail.com       
          Evaluation license: Not for commercial or production use
GAMS 34.3.0   Copyright (C) 1987-2021 GAMS Development. All rights reserved
--- Starting compilation
--- bchfcnet.gms(34) 2 Mb
--- . decl.gms(15) 2 Mb
--- bchfcnet.gms(38) 2 Mb
--- . p500x2988c.inc(6008) 3 Mb
--- bchfcnet.gms(67) 3 Mb
--- . equs.gms(20) 3 Mb
--- bchfcnet.gms(97) 3 Mb
--- call rm -f bchout_i.gdx startcut.txt startheur.txt cuthist.gdx agap.txt rgap.txt cntfail.txt
--- bchfcnet.gms(118) 3 Mb
--- Starting execution: elapsed 0:00:00.190
--- bchfcnet.gms(6066) 5 Mb
--- GDX File (execute_unload) C:\Users\dekhi\Desktop\gamsworld\FCNetLib\test\net.gdx
--- bchfcnet.gms(6157) 5 Mb
--- GDXin=C:\Users\dekhi\Desktop\gamsworld\FCNetLib\test\points\p500x2988c.gdx
--- bchfcnet.gms(6157) 5 Mb
--- GDX File (execute_load) C:\Users\dekhi\Desktop\gamsworld\FCNetLib\test\points\p500x2988c.gdx
--- Generating MIP model master
--- bchfcnet.gms(6161) 8 Mb
---   3,489 rows  5,977 columns  17,650 non-zeroes
---   2,988 discrete-columns
--- Executing CPLEX (Solvelink=2): elapsed 0:00:00.299

IBM ILOG CPLEX   34.3.0 rac355f3 Released Feb 25, 2021 WEI x86 64bit/MS Window

--- GAMS/Cplex Link licensed for continuous and discrete problems.

Reading parameter(s) from "C:\Users\dekhi\Desktop\gamsworld\FCNetLib\test\cplex.op2"
>>  mipstart 1
Finished reading from "C:\Users\dekhi\Desktop\gamsworld\FCNetLib\test\cplex.op2"

--- Space for names approximately 0.21 Mb
--- Use option 'names no' to turn use of names off
--- GMO memory 2.09 Mb (peak 2.14 Mb)
--- Dictionary memory 0.00 Mb
--- Cplex 20.1.0.0 link memory 0.15 Mb (peak 0.64 Mb)
--- Starting Cplex

Version identifier: 20.1.0.0 | 2020-11-10 | 9bedb6d68
CPXPARAM_Threads                                 1
CPXPARAM_MIP_Display                             4
CPXPARAM_TimeLimit                               3600
CPXPARAM_MIP_Tolerances_AbsMIPGap                0
CPXPARAM_MIP_Tolerances_MIPGap                   0
Generic callback                                 0x50
Processing 1 MIP starts.
MIP start 'm1' defined solution with objective 15215.0000.
1 of 1 MIP starts provided solutions.
MIP start 'm1' defined initial solution with objective 15215.0000.
Tried aggregator 1 time.
MIP Presolve eliminated 332 rows and 1 columns.
MIP Presolve added 664 rows and 0 columns.
Reduced MIP has 3820 rows, 5976 columns, and 12616 nonzeros.
Reduced MIP has 2988 binaries, 0 generals, 0 SOSs, and 0 indicators.
Presolve time = 0.01 sec. (91.38 ticks)
Probing time = 0.00 sec. (0.70 ticks)
Tried aggregator 1 time.
Detecting symmetries...
Reduced MIP has 3820 rows, 5976 columns, and 12616 nonzeros.
Reduced MIP has 2988 binaries, 0 generals, 0 SOSs, and 0 indicators.
Presolve time = 0.02 sec. (83.52 ticks)
Probing time = 0.00 sec. (0.70 ticks)
MIP emphasis: balance optimality and feasibility.
MIP search method: dynamic search.
Parallel mode: none, using 1 thread.
Tried aggregator 1 time.
LP Presolve eliminated 2656 rows and 2656 columns.
Aggregator did 332 substitutions.
Reduced LP has 832 rows, 2988 columns, and 6640 nonzeros.
Presolve time = 0.02 sec. (3.19 ticks)

Iteration log . . .
Iteration:     1   Dual objective     =          4299.000000
Iteration:    81   Dual objective     =         14090.913995
Initializing dual steep norms . . .
Root relaxation solution time = 0.02 sec. (6.40 ticks)

        Nodes                                         Cuts/
   Node  Left     Objective  IInf  Best Integer    Best Bound    ItCnt     Gap

*     0+    0                        15215.0000        0.0000           100.00%
Found incumbent of value 15215.000000 after 0.05 sec. (190.26 ticks)
      0     0    14122.9628    12    15215.0000    14122.9628       89    7.18%
      0     0    14730.2856    10    15215.0000      Cuts: 27      103    3.19%
      0     0    14923.5292    22    15215.0000      Cuts: 13      117    1.92%
      0     0    15026.6274    14    15215.0000      Cuts: 18      134    1.24%
      0     0    15097.9353    14    15215.0000      Cuts: 21      205    0.77%
      0     0    15143.9305     7    15215.0000      Cuts: 22      224    0.47%
Detecting symmetries...
      0     0    15172.2556    28    15215.0000       Cuts: 6      241    0.28%
      0     0    15209.7951    23    15215.0000      Cuts: 35      271    0.03%
      0     0        cutoff          15215.0000                    287    0.00%
Elapsed time = 0.22 sec. (511.94 ticks, tree = 0.01 MB, solutions = 1)

Cover cuts applied:  1
Implied bound cuts applied:  5
Flow cuts applied:  13
Mixed integer rounding cuts applied:  23
Flow path cuts applied:  9
Gomory fractional cuts applied:  8

Root node processing (before b&c):
  Real time             =    0.22 sec. (512.20 ticks)
Sequential b&c:
  Real time             =    0.00 sec. (0.00 ticks)
                          ------------
Total (root+branch&cut) =    0.22 sec. (512.20 ticks)

--- MIP status (101): integer optimal solution.
--- Cplex Time: 0.22sec (det. 512.21 ticks)

--- Fixing integer variables and solving final LP...

Version identifier: 20.1.0.0 | 2020-11-10 | 9bedb6d68
CPXPARAM_Advance                                 2
CPXPARAM_Threads                                 1
CPXPARAM_MIP_Display                             4
CPXPARAM_TimeLimit                               3600
CPXPARAM_MIP_Tolerances_AbsMIPGap                0
CPXPARAM_MIP_Tolerances_MIPGap                   0
Tried aggregator 1 time.
LP Presolve eliminated 3488 rows and 5977 columns.
All rows and columns eliminated.
Presolve time = 0.00 sec. (2.09 ticks)

--- Fixed MIP status (1): optimal.
--- Cplex Time: 0.00sec (det. 3.58 ticks)


Proven optimal solution
MIP Solution:        15215.000000    (287 iterations, 0 nodes)
Final Solve:         15215.000000    (0 iterations)

Best possible:       15215.000000
Absolute gap:            0.000000
Relative gap:            0.000000

--- Reading solution for model master
*** Status: Normal completion
--- Job bchfcnet.gms Stop 02/09/22 13:37:53 elapsed 0:00:00.609
